p cnf 60 30
13 -49 -15 0
-22 21 53 0
-27 56 -26 0
-35 20 48 0
6 49 46 0
36 53 49 0
14 19 2 0
-26 -55 24 0
-24 -27 -11 0
35 50 42 0
30 -60 -26 0
-5 -47 -12 0
38 50 -17 0
-39 34 -9 0
-12 -35 -42 0
-7 -14 22 0
43 40 -26 0
10 -33 -60 0
28 -48 59 0
15 -28 -4 0
-12 -25 23 0
-60 41 34 0
45 -16 -49 0
-29 -11 16 0
59 32 27 0
11 -58 -31 0
-13 -35 2 0
52 -22 55 0
44 43 -55 0
42 -30 16 0
